c This is a random SAT instance with 10 variables and 20 clauses
p cnf 10 20
-10 6 1 8 -8 7 0
5 4 3 -5 2 -10 0
8 3 1 5 0
-8 -4 -9 6 -7 2 -1 3 0
5 8 -10 -4 0
-9 -6 -3 7 -4 -7 6 1 8 0
10 -4 4 3 -3 7 5 9 0
-1 0
-10 4 9 -3 0
2 3 -3 9 5 -9 0
-10 -4 4 -9 0
10 -7 -4 -6 7 0
-3 -9 -2 8 10 -10 -1 9 0
-9 -4 1 -1 4 -6 8 -8 0
-6 -5 3 10 8 -2 -7 7 4 -8 0
-1 -4 -8 -5 -10 2 4 0
2 -5 6 -9 -3 -4 0
-9 -4 -5 9 -10 0
7 1 -8 10 0
4 -6 -10 -2 7 0